\ This file has been generated by DOcplex
\ ENCODING=ISO-8859-1
\Problem name: AMC CVRP Docplex Model

Minimize
 obj: 9 x_0 + 9 x_1 + 22 x_2 + 29 x_3 + 9 x_4 - 11 x_5 - 12 x_6 + 30 x_7
      - 14 x_8 + 8 x_9
Subject To
 allVarsCons: x_0 + x_1 + x_2 + x_3 + x_4 + x_5 + x_6 + x_7 + x_8 + x_9 = 5
 randomCons: 14 x_0 - 7 x_2 + 31 x_8 - 26 x_9 = 0
 randomCons#2: 22 x_2 + 10 x_7 - 30 x_8 = 10
 randomCons#3: 14 x_3 - 28 x_8 = 14
 randomCons#4: - 10 x_0 + 16 x_1 + 31 x_2 - 23 x_6 + 49 x_7 - 10 x_9 = 42

Bounds
 0 <= x_0 <= 1
 0 <= x_1 <= 1
 0 <= x_2 <= 1
 0 <= x_3 <= 1
 0 <= x_4 <= 1
 0 <= x_5 <= 1
 0 <= x_6 <= 1
 0 <= x_7 <= 1
 0 <= x_8 <= 1
 0 <= x_9 <= 1

Binaries
 x_0 x_1 x_2 x_3 x_4 x_5 x_6 x_7 x_8 x_9
End
